CPXPARAM_Read_DataCheck                          1
Found incumbent of value 0.000000 after 0.00 sec. (0.08 ticks)
Tried aggregator 1 time.
MIP Presolve eliminated 5 rows and 0 columns.
MIP Presolve modified 1 coefficients.
Reduced MIP has 328 rows, 3010 columns, and 13534 nonzeros.
Reduced MIP has 3010 binaries, 0 generals, 0 SOSs, and 0 indicators.
Presolve time = 0.02 sec. (5.36 ticks)
Tried aggregator 1 time.
Reduced MIP has 328 rows, 3010 columns, and 13534 nonzeros.
Reduced MIP has 3010 binaries, 0 generals, 0 SOSs, and 0 indicators.
Presolve time = 0.00 sec. (5.95 ticks)
Probing time = 0.00 sec. (3.48 ticks)
Clique table members: 9827.
MIP emphasis: balance optimality and feasibility.
MIP search method: dynamic search.
Parallel mode: deterministic, using up to 4 threads.
Root relaxation solution time = 0.02 sec. (9.21 ticks)

        Nodes                                         Cuts/
   Node  Left     Objective  IInf  Best Integer    Best Bound    ItCnt     Gap

*     0+    0                            0.0000    18575.0000              --- 
*     0+    0                         5352.0000    18575.0000           247.07%
      0     0    10452.5300    10     5352.0000    10452.5300      575   95.30%
*     0+    0                         6867.0000    10452.5300            52.21%
*     0+    0                         6906.0000    10452.5300            51.35%
      0     0    10425.0400    10     6906.0000  Cliques: 182      593   23.85%
      0     0    10402.4300    10     6906.0000  Cliques: 182      603   23.85%
      0     0        cutoff           6906.0000     6906.0000      603    0.00%
Elapsed time = 0.31 sec. (181.43 ticks, tree = 0.01 MB, solutions = 4)

Clique cuts applied:  357

Root node processing (before b&c):
  Real time             =    0.31 sec. (181.66 ticks)
Parallel b&c, 4 threads:
  Real time             =    0.00 sec. (0.00 ticks)
  Sync time (average)   =    0.00 sec.
  Wait time (average)   =    0.00 sec.
                          ------------
Total (root+branch&cut) =    0.31 sec. (181.66 ticks)
